c File: data_files/evolved_graphs/g3690.col
c
c Auto generated graph
c
p edge 100 1636
e 1 3
e 1 5
e 1 7
e 1 8
e 1 9
e 1 11
e 1 12
e 1 13
e 1 15
e 1 16
e 1 17
e 1 19
e 1 20
e 1 31
e 1 33
e 1 35
e 1 37
e 1 44
e 1 45
e 1 56
e 1 71
e 1 72
e 1 79
e 1 81
e 1 82
e 1 88
e 1 96
e 2 3
e 2 4
e 2 7
e 2 8
e 2 9
e 2 10
e 2 11
e 2 17
e 2 24
e 2 30
e 2 39
e 2 46
e 2 47
e 2 57
e 2 68
e 2 73
e 2 74
e 2 76
e 2 77
e 2 79
e 2 88
e 2 93
e 2 95
e 2 98
e 2 100
e 3 4
e 3 5
e 3 6
e 3 7
e 3 8
e 3 9
e 3 10
e 3 13
e 3 16
e 3 19
e 3 22
e 3 23
e 3 30
e 3 32
e 3 35
e 3 36
e 3 37
e 3 44
e 3 46
e 3 51
e 3 53
e 3 63
e 3 70
e 3 73
e 3 77
e 3 83
e 3 85
e 3 86
e 3 87
e 3 89
e 3 97
e 3 99
e 3 100
e 4 7
e 4 10
e 4 11
e 4 14
e 4 19
e 4 20
e 4 21
e 4 22
e 4 24
e 4 26
e 4 27
e 4 31
e 4 42
e 4 46
e 4 50
e 4 53
e 4 64
e 4 66
e 4 68
e 4 69
e 4 75
e 4 79
e 4 83
e 4 85
e 4 89
e 4 97
e 4 98
e 4 100
e 5 6
e 5 9
e 5 11
e 5 13
e 5 31
e 5 45
e 5 50
e 5 56
e 5 61
e 5 65
e 5 66
e 5 67
e 5 68
e 5 72
e 5 75
e 5 80
e 5 82
e 5 98
e 5 99
e 6 7
e 6 8
e 6 12
e 6 15
e 6 16
e 6 21
e 6 22
e 6 26
e 6 28
e 6 31
e 6 35
e 6 41
e 6 42
e 6 50
e 6 51
e 6 53
e 6 54
e 6 56
e 6 58
e 6 89
e 6 98
e 6 99
e 6 100
e 7 8
e 7 9
e 7 22
e 7 23
e 7 25
e 7 31
e 7 36
e 7 45
e 7 46
e 7 48
e 7 55
e 7 68
e 7 69
e 7 91
e 7 99
e 7 100
e 8 9
e 8 11
e 8 12
e 8 19
e 8 23
e 8 24
e 8 32
e 8 33
e 8 34
e 8 39
e 8 43
e 8 50
e 8 52
e 8 59
e 8 61
e 8 65
e 8 66
e 8 80
e 8 83
e 8 97
e 9 10
e 9 12
e 9 13
e 9 14
e 9 15
e 9 16
e 9 20
e 9 22
e 9 24
e 9 28
e 9 31
e 9 37
e 9 40
e 9 44
e 9 47
e 9 50
e 9 53
e 9 57
e 9 64
e 9 70
e 9 81
e 9 82
e 9 92
e 9 93
e 9 96
e 9 97
e 9 98
e 9 99
e 9 100
e 10 11
e 10 13
e 10 14
e 10 17
e 10 25
e 10 38
e 10 43
e 10 46
e 10 47
e 10 52
e 10 59
e 10 60
e 10 64
e 10 66
e 10 68
e 10 71
e 10 73
e 10 91
e 10 95
e 10 97
e 11 12
e 11 16
e 11 18
e 11 33
e 11 37
e 11 38
e 11 39
e 11 46
e 11 48
e 11 53
e 11 57
e 11 59
e 11 72
e 11 96
e 12 13
e 12 16
e 12 17
e 12 23
e 12 24
e 12 26
e 12 30
e 12 37
e 12 38
e 12 40
e 12 41
e 12 43
e 12 44
e 12 45
e 12 51
e 12 54
e 12 58
e 12 60
e 12 69
e 12 70
e 12 72
e 12 73
e 12 80
e 12 82
e 12 83
e 12 84
e 12 87
e 12 91
e 12 92
e 12 94
e 12 97
e 13 29
e 13 31
e 13 40
e 13 44
e 13 50
e 13 57
e 13 58
e 13 59
e 13 60
e 13 63
e 13 68
e 13 70
e 13 71
e 13 72
e 13 74
e 13 75
e 13 85
e 13 88
e 13 91
e 13 93
e 13 96
e 13 97
e 13 100
e 14 16
e 14 18
e 14 19
e 14 25
e 14 40
e 14 45
e 14 48
e 14 77
e 14 81
e 14 82
e 14 92
e 14 96
e 14 98
e 14 99
e 14 100
e 15 16
e 15 18
e 15 20
e 15 26
e 15 27
e 15 28
e 15 34
e 15 36
e 15 40
e 15 41
e 15 42
e 15 43
e 15 45
e 15 47
e 15 49
e 15 52
e 15 53
e 15 56
e 15 67
e 15 71
e 15 74
e 15 75
e 15 77
e 15 78
e 15 86
e 15 89
e 15 94
e 15 98
e 15 99
e 15 100
e 16 17
e 16 19
e 16 21
e 16 22
e 16 24
e 16 26
e 16 28
e 16 29
e 16 34
e 16 40
e 16 42
e 16 51
e 16 54
e 16 55
e 16 61
e 16 65
e 16 68
e 16 72
e 16 75
e 16 80
e 16 81
e 16 82
e 16 83
e 16 92
e 16 94
e 16 97
e 16 99
e 17 20
e 17 30
e 17 31
e 17 33
e 17 43
e 17 48
e 17 49
e 17 52
e 17 53
e 17 54
e 17 55
e 17 58
e 17 59
e 17 63
e 17 65
e 17 74
e 17 79
e 17 90
e 17 98
e 18 19
e 18 22
e 18 29
e 18 34
e 18 38
e 18 39
e 18 47
e 18 51
e 18 59
e 18 63
e 18 64
e 18 75
e 18 76
e 18 83
e 18 88
e 18 91
e 18 95
e 18 97
e 18 99
e 18 100
e 19 29
e 19 31
e 19 32
e 19 36
e 19 41
e 19 43
e 19 46
e 19 48
e 19 49
e 19 50
e 19 58
e 19 59
e 19 61
e 19 62
e 19 69
e 19 77
e 19 78
e 19 79
e 19 80
e 19 92
e 19 95
e 19 99
e 20 21
e 20 22
e 20 25
e 20 27
e 20 28
e 20 30
e 20 32
e 20 33
e 20 34
e 20 35
e 20 36
e 20 37
e 20 38
e 20 39
e 20 42
e 20 43
e 20 44
e 20 45
e 20 48
e 20 49
e 20 50
e 20 53
e 20 58
e 20 59
e 20 60
e 20 62
e 20 63
e 20 64
e 20 66
e 20 68
e 20 70
e 20 72
e 20 74
e 20 97
e 20 98
e 20 100
e 21 22
e 21 24
e 21 27
e 21 28
e 21 32
e 21 35
e 21 36
e 21 37
e 21 38
e 21 41
e 21 43
e 21 44
e 21 45
e 21 47
e 21 49
e 21 50
e 21 53
e 21 54
e 21 55
e 21 56
e 21 58
e 21 60
e 21 61
e 21 62
e 21 65
e 21 67
e 21 69
e 21 70
e 21 72
e 21 74
e 21 90
e 21 93
e 21 96
e 21 97
e 21 100
e 22 26
e 22 30
e 22 32
e 22 33
e 22 34
e 22 36
e 22 37
e 22 39
e 22 40
e 22 41
e 22 45
e 22 46
e 22 47
e 22 50
e 22 54
e 22 55
e 22 56
e 22 58
e 22 61
e 22 64
e 22 65
e 22 66
e 22 67
e 22 69
e 22 71
e 22 73
e 22 96
e 22 97
e 22 98
e 23 25
e 23 26
e 23 28
e 23 30
e 23 32
e 23 34
e 23 36
e 23 37
e 23 38
e 23 40
e 23 45
e 23 46
e 23 48
e 23 49
e 23 50
e 23 52
e 23 53
e 23 54
e 23 55
e 23 58
e 23 60
e 23 62
e 23 66
e 23 68
e 23 69
e 23 70
e 23 71
e 23 74
e 23 86
e 23 91
e 23 94
e 23 97
e 23 98
e 23 99
e 24 26
e 24 28
e 24 29
e 24 30
e 24 32
e 24 33
e 24 38
e 24 39
e 24 44
e 24 45
e 24 47
e 24 48
e 24 50
e 24 52
e 24 53
e 24 55
e 24 56
e 24 57
e 24 58
e 24 60
e 24 61
e 24 62
e 24 64
e 24 65
e 24 70
e 24 71
e 24 96
e 25 27
e 25 29
e 25 30
e 25 31
e 25 35
e 25 36
e 25 38
e 25 39
e 25 41
e 25 42
e 25 44
e 25 45
e 25 46
e 25 47
e 25 49
e 25 52
e 25 53
e 25 54
e 25 57
e 25 58
e 25 60
e 25 65
e 25 68
e 25 69
e 25 70
e 25 72
e 25 74
e 25 96
e 25 100
e 26 27
e 26 28
e 26 29
e 26 34
e 26 35
e 26 36
e 26 38
e 26 39
e 26 40
e 26 41
e 26 43
e 26 45
e 26 48
e 26 49
e 26 50
e 26 52
e 26 54
e 26 55
e 26 56
e 26 57
e 26 58
e 26 59
e 26 60
e 26 61
e 26 62
e 26 68
e 26 69
e 26 71
e 26 74
e 26 96
e 26 98
e 26 100
e 27 29
e 27 31
e 27 32
e 27 34
e 27 35
e 27 36
e 27 37
e 27 38
e 27 39
e 27 41
e 27 42
e 27 43
e 27 44
e 27 45
e 27 48
e 27 55
e 27 56
e 27 57
e 27 58
e 27 62
e 27 63
e 27 64
e 27 65
e 27 66
e 27 69
e 27 73
e 27 95
e 27 96
e 27 99
e 27 100
e 28 29
e 28 30
e 28 31
e 28 33
e 28 34
e 28 35
e 28 36
e 28 37
e 28 38
e 28 39
e 28 40
e 28 41
e 28 42
e 28 43
e 28 44
e 28 46
e 28 48
e 28 49
e 28 50
e 28 52
e 28 53
e 28 54
e 28 55
e 28 56
e 28 57
e 28 58
e 28 61
e 28 63
e 28 64
e 28 65
e 28 66
e 28 67
e 28 71
e 28 72
e 28 74
e 28 85
e 28 96
e 28 97
e 28 98
e 28 99
e 29 30
e 29 31
e 29 34
e 29 35
e 29 36
e 29 37
e 29 42
e 29 44
e 29 46
e 29 47
e 29 50
e 29 51
e 29 52
e 29 53
e 29 54
e 29 55
e 29 56
e 29 58
e 29 59
e 29 61
e 29 62
e 29 63
e 29 66
e 29 70
e 29 71
e 29 73
e 29 99
e 30 34
e 30 35
e 30 36
e 30 37
e 30 39
e 30 40
e 30 45
e 30 46
e 30 48
e 30 50
e 30 53
e 30 54
e 30 57
e 30 59
e 30 60
e 30 62
e 30 63
e 30 64
e 30 65
e 30 66
e 30 68
e 30 70
e 30 73
e 30 74
e 30 87
e 30 91
e 30 96
e 30 100
e 31 33
e 31 34
e 31 35
e 31 37
e 31 38
e 31 39
e 31 40
e 31 42
e 31 47
e 31 48
e 31 52
e 31 54
e 31 55
e 31 56
e 31 57
e 31 59
e 31 61
e 31 63
e 31 67
e 31 68
e 31 69
e 31 70
e 31 72
e 31 73
e 31 81
e 31 98
e 31 99
e 32 33
e 32 35
e 32 36
e 32 39
e 32 40
e 32 43
e 32 45
e 32 46
e 32 47
e 32 50
e 32 51
e 32 52
e 32 54
e 32 55
e 32 57
e 32 59
e 32 61
e 32 64
e 32 65
e 32 66
e 32 67
e 32 69
e 32 71
e 32 74
e 32 88
e 32 94
e 32 99
e 33 34
e 33 36
e 33 37
e 33 39
e 33 44
e 33 45
e 33 46
e 33 48
e 33 49
e 33 50
e 33 51
e 33 52
e 33 55
e 33 56
e 33 61
e 33 63
e 33 65
e 33 69
e 33 71
e 33 72
e 33 74
e 33 96
e 33 98
e 33 100
e 34 35
e 34 39
e 34 41
e 34 42
e 34 43
e 34 45
e 34 46
e 34 47
e 34 48
e 34 50
e 34 51
e 34 53
e 34 54
e 34 57
e 34 59
e 34 61
e 34 62
e 34 64
e 34 65
e 34 70
e 34 71
e 34 72
e 34 73
e 34 80
e 34 96
e 34 99
e 35 36
e 35 37
e 35 40
e 35 43
e 35 47
e 35 48
e 35 49
e 35 53
e 35 56
e 35 59
e 35 60
e 35 61
e 35 62
e 35 69
e 35 71
e 35 72
e 35 91
e 35 96
e 35 97
e 36 38
e 36 40
e 36 41
e 36 42
e 36 43
e 36 44
e 36 46
e 36 47
e 36 49
e 36 50
e 36 51
e 36 52
e 36 54
e 36 55
e 36 56
e 36 57
e 36 61
e 36 66
e 36 69
e 36 70
e 36 72
e 36 73
e 36 74
e 36 81
e 36 97
e 36 99
e 36 100
e 37 38
e 37 40
e 37 41
e 37 43
e 37 45
e 37 49
e 37 51
e 37 52
e 37 54
e 37 56
e 37 57
e 37 58
e 37 59
e 37 60
e 37 63
e 37 65
e 37 66
e 37 67
e 37 68
e 37 70
e 37 71
e 37 72
e 37 73
e 37 74
e 37 78
e 37 83
e 38 39
e 38 42
e 38 43
e 38 44
e 38 45
e 38 46
e 38 47
e 38 51
e 38 54
e 38 55
e 38 56
e 38 58
e 38 60
e 38 62
e 38 63
e 38 64
e 38 65
e 38 66
e 38 67
e 38 69
e 38 71
e 38 72
e 38 73
e 38 74
e 38 98
e 38 100
e 39 40
e 39 41
e 39 42
e 39 43
e 39 46
e 39 47
e 39 48
e 39 49
e 39 50
e 39 51
e 39 54
e 39 56
e 39 58
e 39 59
e 39 61
e 39 62
e 39 65
e 39 66
e 39 68
e 39 69
e 39 71
e 39 72
e 39 74
e 40 41
e 40 42
e 40 43
e 40 44
e 40 45
e 40 47
e 40 48
e 40 50
e 40 51
e 40 54
e 40 55
e 40 57
e 40 59
e 40 60
e 40 62
e 40 63
e 40 64
e 40 65
e 40 66
e 40 67
e 40 68
e 40 70
e 40 73
e 40 74
e 40 79
e 40 81
e 40 88
e 40 100
e 41 43
e 41 44
e 41 45
e 41 47
e 41 48
e 41 49
e 41 50
e 41 51
e 41 52
e 41 55
e 41 56
e 41 57
e 41 59
e 41 60
e 41 61
e 41 62
e 41 63
e 41 65
e 41 67
e 41 69
e 41 72
e 41 85
e 41 96
e 41 98
e 42 44
e 42 47
e 42 49
e 42 51
e 42 52
e 42 54
e 42 55
e 42 56
e 42 58
e 42 60
e 42 61
e 42 62
e 42 63
e 42 64
e 42 65
e 42 68
e 42 69
e 42 72
e 42 73
e 42 74
e 42 86
e 42 99
e 43 46
e 43 47
e 43 50
e 43 52
e 43 54
e 43 56
e 43 58
e 43 63
e 43 65
e 43 66
e 43 68
e 43 70
e 43 72
e 43 73
e 43 88
e 43 97
e 44 46
e 44 47
e 44 49
e 44 50
e 44 52
e 44 55
e 44 56
e 44 62
e 44 63
e 44 64
e 44 66
e 44 67
e 44 68
e 44 72
e 44 73
e 44 90
e 44 97
e 44 98
e 45 47
e 45 50
e 45 52
e 45 53
e 45 55
e 45 57
e 45 58
e 45 60
e 45 61
e 45 62
e 45 65
e 45 66
e 45 69
e 45 71
e 45 72
e 45 73
e 45 74
e 45 89
e 45 96
e 46 47
e 46 48
e 46 49
e 46 50
e 46 51
e 46 52
e 46 53
e 46 54
e 46 55
e 46 56
e 46 57
e 46 58
e 46 59
e 46 60
e 46 61
e 46 64
e 46 67
e 46 68
e 46 69
e 46 71
e 46 72
e 46 73
e 46 99
e 47 50
e 47 51
e 47 53
e 47 57
e 47 58
e 47 59
e 47 60
e 47 64
e 47 65
e 47 66
e 47 69
e 47 72
e 47 73
e 47 74
e 48 49
e 48 50
e 48 51
e 48 53
e 48 55
e 48 56
e 48 58
e 48 59
e 48 62
e 48 63
e 48 64
e 48 65
e 48 67
e 48 68
e 48 69
e 48 70
e 48 74
e 48 97
e 48 98
e 48 99
e 49 54
e 49 55
e 49 56
e 49 57
e 49 59
e 49 60
e 49 61
e 49 63
e 49 64
e 49 65
e 49 67
e 49 68
e 49 70
e 49 71
e 49 72
e 49 73
e 49 94
e 49 96
e 49 97
e 49 99
e 49 100
e 50 53
e 50 54
e 50 56
e 50 57
e 50 58
e 50 59
e 50 60
e 50 61
e 50 62
e 50 63
e 50 64
e 50 65
e 50 66
e 50 67
e 50 68
e 50 70
e 50 76
e 50 97
e 50 99
e 51 52
e 51 53
e 51 54
e 51 56
e 51 58
e 51 59
e 51 61
e 51 62
e 51 64
e 51 65
e 51 66
e 51 69
e 51 70
e 51 73
e 51 74
e 51 96
e 51 98
e 52 53
e 52 54
e 52 55
e 52 56
e 52 59
e 52 62
e 52 63
e 52 64
e 52 66
e 52 68
e 52 71
e 52 82
e 52 92
e 52 97
e 52 98
e 53 55
e 53 56
e 53 58
e 53 59
e 53 61
e 53 62
e 53 63
e 53 64
e 53 66
e 53 71
e 53 73
e 53 74
e 53 77
e 53 97
e 53 100
e 54 55
e 54 57
e 54 58
e 54 59
e 54 60
e 54 62
e 54 63
e 54 65
e 54 66
e 54 68
e 54 70
e 54 72
e 54 73
e 54 79
e 54 94
e 55 56
e 55 57
e 55 58
e 55 61
e 55 62
e 55 64
e 55 66
e 55 71
e 55 72
e 55 73
e 55 74
e 55 86
e 56 57
e 56 58
e 56 62
e 56 64
e 56 65
e 56 66
e 56 68
e 56 69
e 56 71
e 56 72
e 56 73
e 56 95
e 56 96
e 57 58
e 57 59
e 57 64
e 57 68
e 57 70
e 57 74
e 57 88
e 57 93
e 58 62
e 58 63
e 58 65
e 58 66
e 58 67
e 58 68
e 58 69
e 58 70
e 58 73
e 58 74
e 58 87
e 58 95
e 58 98
e 58 99
e 58 100
e 59 60
e 59 61
e 59 62
e 59 63
e 59 64
e 59 67
e 59 69
e 59 87
e 59 89
e 59 98
e 59 100
e 60 61
e 60 63
e 60 64
e 60 65
e 60 67
e 60 68
e 60 69
e 60 71
e 60 73
e 60 88
e 60 99
e 60 100
e 61 62
e 61 63
e 61 65
e 61 67
e 61 73
e 61 74
e 61 95
e 61 96
e 62 63
e 62 66
e 62 67
e 62 68
e 62 70
e 62 73
e 62 74
e 62 97
e 62 99
e 63 66
e 63 70
e 63 71
e 63 74
e 63 85
e 63 96
e 63 98
e 63 100
e 64 66
e 64 67
e 64 68
e 64 70
e 64 100
e 65 66
e 65 67
e 65 68
e 65 69
e 65 70
e 65 71
e 65 74
e 65 97
e 65 99
e 65 100
e 66 68
e 66 71
e 66 73
e 66 93
e 67 68
e 67 69
e 67 70
e 67 71
e 67 72
e 67 74
e 67 96
e 67 98
e 67 100
e 68 70
e 68 71
e 68 72
e 68 73
e 68 74
e 68 75
e 68 99
e 68 100
e 69 70
e 69 71
e 69 73
e 69 75
e 69 94
e 69 100
e 70 71
e 70 72
e 70 73
e 70 74
e 70 96
e 70 97
e 71 72
e 71 96
e 71 98
e 71 99
e 72 73
e 72 86
e 73 74
e 73 83
e 73 98
e 73 100
e 74 88
e 74 91
e 74 97
e 75 77
e 75 79
e 75 81
e 75 82
e 75 84
e 75 87
e 75 89
e 75 92
e 75 93
e 75 94
e 75 95
e 75 96
e 75 100
e 76 78
e 76 79
e 76 80
e 76 81
e 76 83
e 76 84
e 76 85
e 76 86
e 76 88
e 76 89
e 76 90
e 76 94
e 76 95
e 76 97
e 76 99
e 76 100
e 77 78
e 77 79
e 77 82
e 77 84
e 77 85
e 77 86
e 77 87
e 77 89
e 77 90
e 77 91
e 77 93
e 77 94
e 77 95
e 77 96
e 78 79
e 78 82
e 78 84
e 78 86
e 78 87
e 78 88
e 78 90
e 78 91
e 78 92
e 78 93
e 78 95
e 78 96
e 79 81
e 79 82
e 79 83
e 79 84
e 79 85
e 79 87
e 79 89
e 79 90
e 79 91
e 79 93
e 79 95
e 79 96
e 80 82
e 80 83
e 80 85
e 80 86
e 80 88
e 80 89
e 80 90
e 80 91
e 80 92
e 80 93
e 80 94
e 80 97
e 81 83
e 81 84
e 81 85
e 81 88
e 81 89
e 81 90
e 81 91
e 81 93
e 81 94
e 81 95
e 81 98
e 81 99
e 82 83
e 82 87
e 82 88
e 82 91
e 82 92
e 82 95
e 82 98
e 82 99
e 83 84
e 83 85
e 83 86
e 83 88
e 83 90
e 83 91
e 83 93
e 83 94
e 83 95
e 83 96
e 83 100
e 84 85
e 84 88
e 84 89
e 84 90
e 84 94
e 84 95
e 84 99
e 85 86
e 85 88
e 85 89
e 85 90
e 85 91
e 85 92
e 85 94
e 85 95
e 85 96
e 86 87
e 86 88
e 86 89
e 86 90
e 86 93
e 86 94
e 86 97
e 86 99
e 86 100
e 87 89
e 87 90
e 87 92
e 87 93
e 87 97
e 88 89
e 88 91
e 88 92
e 88 94
e 88 95
e 88 96
e 88 97
e 89 90
e 89 91
e 89 92
e 89 95
e 89 98
e 90 91
e 90 93
e 90 94
e 90 96
e 90 98
e 90 100
e 91 93
e 91 95
e 91 96
e 92 93
e 92 94
e 92 98
e 93 94
e 93 95
e 93 96
e 93 97
e 93 99
e 93 100
e 94 97
e 94 98
e 94 99
e 95 96
e 95 98
e 96 97
e 96 98
e 96 99
e 97 99
e 99 100
